NAME          
ROWS
 N  OBJ
 L  c1
 L  c2
 L  c3
 L  c4
 L  c5
COLUMNS
    MARKER    'MARKER'                 'INTORG'
    x[1]      c1        530
    x[1]      c2        643
    x[1]      c3        485
    x[1]      c4        104
    x[1]      c5        464
    x[1]      OBJ       -565
    x[2]      c1        437
    x[2]      c2        76
    x[2]      c3        8
    x[2]      c4        262
    x[2]      c5        430
    x[2]      OBJ       -596
    x[3]      c1        405
    x[3]      c2        857
    x[3]      c3        170
    x[3]      c4        891
    x[3]      c5        746
    x[3]      OBJ       -999
    x[4]      c1        484
    x[4]      c2        19
    x[4]      c3        351
    x[4]      c4        165
    x[4]      c5        462
    x[4]      OBJ       -672
    x[5]      c1        558
    x[5]      c2        633
    x[5]      c3        652
    x[5]      c4        207
    x[5]      c5        137
    x[5]      OBJ       -406
    x[6]      c1        367
    x[6]      c2        971
    x[6]      c3        931
    x[6]      c4        133
    x[6]      c5        278
    x[6]      OBJ       -187
    x[7]      c1        529
    x[7]      c2        545
    x[7]      c3        418
    x[7]      c4        294
    x[7]      c5        600
    x[7]      OBJ       -969
    x[8]      c1        692
    x[8]      c2        870
    x[8]      c3        673
    x[8]      c4        427
    x[8]      c5        57
    x[8]      OBJ       -876
    x[9]      c1        59
    x[9]      c2        837
    x[9]      c3        646
    x[9]      c4        212
    x[9]      c5        670
    x[9]      OBJ       -902
    x[10]     c1        747
    x[10]     c2        285
    x[10]     c3        291
    x[10]     c4        394
    x[10]     c5        478
    x[10]     OBJ       -897
    x[11]     c1        960
    x[11]     c2        737
    x[11]     c3        666
    x[11]     c4        259
    x[11]     c5        387
    x[11]     OBJ       -352
    x[12]     c1        378
    x[12]     c2        365
    x[12]     c3        684
    x[12]     c4        192
    x[12]     c5        633
    x[12]     OBJ       -32
    x[13]     c1        249
    x[13]     c2        976
    x[13]     c3        264
    x[13]     c4        896
    x[13]     c5        902
    x[13]     OBJ       -199
    x[14]     c1        663
    x[14]     c2        723
    x[14]     c3        499
    x[14]     c4        532
    x[14]     c5        474
    x[14]     OBJ       -920
    x[15]     c1        332
    x[15]     c2        616
    x[15]     c3        613
    x[15]     c4        437
    x[15]     c5        606
    x[15]     OBJ       -454
RHS
    rhs       c1        3695
    rhs       c2        4576
    rhs       c3        3676
    rhs       c4        2702
    rhs       c5        3662
RANGES
BOUNDS
 BV bounds    x[1]
 BV bounds    x[2]
 BV bounds    x[3]
 BV bounds    x[4]
 BV bounds    x[5]
 BV bounds    x[6]
 BV bounds    x[7]
 BV bounds    x[8]
 BV bounds    x[9]
 BV bounds    x[10]
 BV bounds    x[11]
 BV bounds    x[12]
 BV bounds    x[13]
 BV bounds    x[14]
 BV bounds    x[15]
ENDATA
